treewidth/data/CompleteGraph_15.gr
p tw 15 105
1 2
1 8
1 9
1 10
1 11
1 12
1 13
1 14
1 15
1 3
1 4
1 5
1 6
1 7
2 8
2 9
2 10
2 11
2 12
2 13
2 14
2 15
2 3
2 4
2 5
2 6
2 7
8 9
8 10
8 11
8 12
8 13
8 14
8 15
8 3
8 4
8 5
8 6
8 7
9 10
9 11
9 12
9 13
9 14
9 15
9 3
9 4
9 5
9 6
9 7
10 11
10 12
10 13
10 14
10 15
10 3
10 4
10 5
10 6
10 7
11 12
11 13
11 14
11 15
11 3
11 4
11 5
11 6
11 7
12 13
12 14
12 15
12 3
12 4
12 5
12 6
12 7
13 14
13 15
13 3
13 4
13 5
13 6
13 7
14 15
14 3
14 4
14 5
14 6
14 7
15 3
15 4
15 5
15 6
15 7
3 4
3 5
3 6
3 7
4 5
4 6
4 7
5 6
5 7
6 7
