treewidth/data/CompleteGraph_15.td
c width = 14, time = 0.167375
s td 1 15 15
b 1 1 2 3 4 5 6 7 8 9 10 11 12 13 14 15
